NAME          COPTPROB
OBJSENSE
  MIN
ROWS
 N  __OBJ___
 L  C6      
 L  C8      
 L  C11     
 L  C12     
 L  C14     
 L  C17     
 L  C20     
 L  C22     
 L  C26     
 L  C36     
 L  C37     
 L  C38     
 L  C46     
 L  C48     
 L  C49     
 L  C54     
 L  C55     
 L  C57     
 L  C61     
 L  C65     
 L  C67     
 L  C71     
 L  C75     
 L  C76     
 L  C77     
 L  C80     
 L  C85     
 L  C86     
 L  C90     
 L  C91     
 L  C93     
 L  C97     
 L  C102    
 L  C104    
 L  C108    
 L  C111    
 L  C114    
 L  C119    
 L  C121    
 L  C126    
 L  C128    
 L  C136    
 L  C137    
 L  C144    
 L  C148    
 L  C152    
 L  C153    
 L  C157    
 L  C159    
 L  C161    
 L  C163    
 L  C165    
 L  C168    
 L  C169    
 L  C173    
 L  C175    
 L  C178    
 L  C181    
 L  C185    
 L  C189    
 L  C191    
 L  C192    
 L  C199    
 L  C201    
 L  C204    
 L  C214    
 L  C215    
 L  C217    
 L  C218    
 L  C221    
 L  C223    
 L  C224    
 L  C228    
 L  C229    
 L  C230    
 L  C235    
 L  C242    
 L  C244    
 L  C245    
 L  C248    
 L  C254    
 L  C255    
 L  C265    
 L  C267    
 L  C268    
 L  C269    
 L  C271    
 L  C272    
 L  C275    
 L  C278    
 L  C280    
 L  C283    
 L  C284    
 L  C286    
 L  C288    
 L  C290    
 L  C292    
 L  C296    
 L  C297    
 L  C299    
 L  C300    
 L  C303    
 L  C304    
 L  C307    
 L  C310    
 L  C311    
 L  C312    
 L  C313    
 L  C316    
 L  C319    
 L  C320    
 L  C321    
 L  C326    
 L  C327    
 L  C330    
 L  C332    
 L  C334    
 L  C338    
 L  C343    
 L  C346    
 L  C347    
 L  C353    
 L  C355    
 L  C357    
 L  C358    
 L  C361    
 L  C364    
 L  C370    
 L  C373    
 L  C378    
 L  C380    
 L  C389    
 L  C395    
 L  C399    
COLUMNS
    MARKER    'MARKER'                 'INTORG'
    x2        __OBJ___  451
    x2        C77       -1
    x2        C104      -1
    x2        C121      -1
    x6        __OBJ___  756
    x6        C14       -1
    x6        C347      -1
    x9        __OBJ___  21
    x9        C26       -1
    x9        C292      -1
    x9        C296      -1
    x9        C395      -1
    x10       __OBJ___  956
    x10       C6        -1
    x10       C169      -1
    x10       C204      -1
    x10       C288      -1
    x10       C299      -1
    x14       __OBJ___  831
    x14       C75       -1
    x14       C108      -1
    x14       C144      -1
    x15       __OBJ___  767
    x15       C55       -1
    x15       C126      -1
    x15       C148      -1
    x15       C235      -1
    x15       C319      -1
    x17       __OBJ___  38
    x17       C248      -1
    x19       __OBJ___  440
    x19       C37       -1
    x19       C46       -1
    x19       C268      -1
    x19       C313      -1
    x19       C358      -1
    x21       __OBJ___  617
    x21       C85       -1
    x21       C119      -1
    x21       C173      -1
    x21       C181      -1
    x21       C267      -1
    x21       C300      -1
    x22       __OBJ___  859
    x22       C137      -1
    x22       C214      -1
    x22       C221      -1
    x22       C271      -1
    x33       __OBJ___  22
    x33       C192      -1
    x33       C327      -1
    x37       __OBJ___  698
    x37       C76       -1
    x37       C175      -1
    x39       __OBJ___  557
    x39       C49       -1
    x39       C152      -1
    x39       C201      -1
    x39       C228      -1
    x39       C284      -1
    x39       C307      -1
    x41       __OBJ___  324
    x41       C91       -1
    x41       C304      -1
    x41       C334      -1
    x41       C378      -1
    x44       __OBJ___  259
    x44       C303      -1
    x44       C370      -1
    x45       __OBJ___  205
    x45       C86       -1
    x45       C178      -1
    x50       __OBJ___  711
    x50       C168      -1
    x50       C217      -1
    x50       C244      -1
    x50       C275      -1
    x51       __OBJ___  183
    x51       C65       -1
    x55       __OBJ___  512
    x55       C38       -1
    x55       C215      -1
    x55       C254      -1
    x55       C316      -1
    x57       __OBJ___  175
    x57       C61       -1
    x57       C114      -1
    x58       __OBJ___  526
    x58       C67       -1
    x58       C136      -1
    x62       __OBJ___  860
    x62       C310      -1
    x62       C338      -1
    x62       C389      -1
    x68       __OBJ___  350
    x68       C57       -1
    x68       C245      -1
    x68       C297      -1
    x68       C380      -1
    x72       __OBJ___  990
    x72       C22       -1
    x72       C102      -1
    x72       C153      -1
    x72       C242      -1
    x73       __OBJ___  138
    x73       C48       -1
    x73       C326      -1
    x73       C399      -1
    x74       __OBJ___  959
    x74       C12       -1
    x74       C97       -1
    x74       C199      -1
    x74       C265      -1
    x74       C346      -1
    x77       __OBJ___  491
    x77       C80       -1
    x77       C111      -1
    x77       C128      -1
    x78       __OBJ___  3
    x78       C36       -1
    x78       C353      -1
    x78       C355      -1
    x80       __OBJ___  699
    x80       C8        -1
    x80       C278      -1
    x83       __OBJ___  980
    x83       C191      -1
    x83       C223      -1
    x83       C255      -1
    x83       C286      -1
    x84       __OBJ___  418
    x84       C157      -1
    x84       C280      -1
    x84       C357      -1
    x85       __OBJ___  826
    x85       C161      -1
    x85       C163      -1
    x85       C229      -1
    x85       C343      -1
    x89       __OBJ___  594
    x89       C230      -1
    x89       C312      -1
    x89       C361      -1
    x89       C373      -1
    x94       __OBJ___  170
    x94       C90       -1
    x94       C189      -1
    x95       __OBJ___  559
    x95       C272      -1
    x95       C290      -1
    x95       C321      -1
    x97       __OBJ___  626
    x97       C8        -1
    x97       C86       -1
    x97       C332      -1
    x98       __OBJ___  976
    x98       C65       -1
    x98       C169      -1
    x98       C312      -1
    x99       __OBJ___  324
    x99       C6        -1
    x99       C38       -1
    x99       C77       -1
    x99       C86       -1
    x104      __OBJ___  142
    x104      C97       -1
    x104      C229      -1
    x104      C267      -1
    x105      __OBJ___  10
    x105      C22       -1
    x105      C254      -1
    x108      __OBJ___  235
    x108      C49       -1
    x108      C157      -1
    x108      C178      -1
    x113      __OBJ___  107
    x113      C36       -1
    x113      C144      -1
    x113      C214      -1
    x117      __OBJ___  474
    x117      C161      -1
    x117      C286      -1
    x117      C297      -1
    x117      C313      -1
    x118      __OBJ___  868
    x118      C152      -1
    x118      C175      -1
    x118      C214      -1
    x118      C378      -1
    x121      __OBJ___  207
    x121      C181      -1
    x121      C297      -1
    x122      __OBJ___  166
    x122      C224      -1
    x122      C280      -1
    x122      C313      -1
    x122      C327      -1
    x123      __OBJ___  400
    x123      C244      -1
    x123      C288      -1
    x125      __OBJ___  57
    x125      C255      -1
    x125      C319      -1
    x131      __OBJ___  76
    x131      C11       -1
    x131      C76       -1
    x131      C189      -1
    x131      C364      -1
    x133      __OBJ___  53
    x133      C85       -1
    x133      C357      -1
    x136      __OBJ___  437
    x136      C163      -1
    x136      C320      -1
    x140      __OBJ___  188
    x140      C17       -1
    x140      C319      -1
    x140      C358      -1
    x143      __OBJ___  579
    x143      C8        -1
    x143      C38       -1
    x148      __OBJ___  188
    x148      C178      -1
    x149      __OBJ___  957
    x149      C17       -1
    x149      C26       -1
    x149      C338      -1
    x150      __OBJ___  99
    x150      C189      -1
    x150      C300      -1
    x151      __OBJ___  276
    x151      C12       -1
    x151      C54       -1
    x151      C67       -1
    x151      C269      -1
    x155      __OBJ___  350
    x155      C244      -1
    x157      __OBJ___  288
    x157      C148      -1
    x157      C178      -1
    x159      __OBJ___  170
    x159      C346      -1
    x159      C353      -1
    x160      __OBJ___  25
    x160      C214      -1
    x160      C373      -1
    x170      __OBJ___  2
    x170      C230      -1
    x170      C316      -1
    x170      C399      -1
    x173      __OBJ___  995
    x173      C67       -1
    x173      C201      -1
    x173      C330      -1
    x173      C378      -1
    x178      __OBJ___  75
    x178      C71       -1
    x178      C165      -1
    x178      C191      -1
    x180      __OBJ___  26
    x180      C61       -1
    x180      C217      -1
    x182      __OBJ___  427
    x182      C181      -1
    x182      C321      -1
    x182      C358      -1
    x183      __OBJ___  354
    x183      C102      -1
    x183      C278      -1
    x183      C364      -1
    x185      __OBJ___  364
    x185      C91       -1
    x185      C111      -1
    x188      __OBJ___  548
    x188      C11       -1
    x188      C111      -1
    x188      C223      -1
    x188      C296      -1
    x188      C299      -1
    x188      C321      -1
    x191      __OBJ___  496
    x191      C90       -1
    x191      C185      -1
    x191      C280      -1
    x197      __OBJ___  275
    x197      C153      -1
    x197      C288      -1
    x200      __OBJ___  474
    x200      C343      -1
    x200      C389      -1
    x203      __OBJ___  105
    x203      C20       -1
    x203      C159      -1
    x204      __OBJ___  455
    x204      C8        -1
    x204      C361      -1
    x208      __OBJ___  565
    x208      C235      -1
    x208      C267      -1
    x209      __OBJ___  870
    x209      C161      -1
    x209      C290      -1
    x209      C303      -1
    x209      C307      -1
    x216      __OBJ___  681
    x216      C48       -1
    x216      C55       -1
    x218      __OBJ___  651
    x218      C86       -1
    x218      C221      -1
    x218      C254      -1
    x220      __OBJ___  358
    x220      C46       -1
    x220      C144      -1
    x222      __OBJ___  120
    x222      C49       -1
    x222      C192      -1
    x223      __OBJ___  628
    x223      C168      -1
    x223      C321      -1
    x227      __OBJ___  170
    x227      C20       -1
    x227      C299      -1
    x230      __OBJ___  365
    x230      C358      -1
    x230      C380      -1
    x237      __OBJ___  142
    x237      C265      -1
    x237      C271      -1
    x237      C320      -1
    x240      __OBJ___  270
    x240      C153      -1
    x240      C312      -1
    x242      __OBJ___  710
    x242      C93       -1
    x242      C137      -1
    x243      __OBJ___  358
    x243      C268      -1
    x252      __OBJ___  345
    x252      C61       -1
    x252      C91       -1
    x256      __OBJ___  572
    x256      C185      -1
    x256      C215      -1
    x256      C248      -1
    x256      C299      -1
    x258      __OBJ___  29
    x258      C61       -1
    x258      C311      -1
    x260      __OBJ___  55
    x260      C121      -1
    x263      __OBJ___  705
    x263      C104      -1
    x263      C108      -1
    x263      C228      -1
    x270      __OBJ___  965
    x270      C144      -1
    x270      C169      -1
    x270      C284      -1
    x276      __OBJ___  480
    x276      C121      -1
    x276      C284      -1
    x276      C299      -1
    x282      __OBJ___  124
    x282      C54       -1
    x282      C173      -1
    x282      C275      -1
    x292      __OBJ___  671
    x292      C57       -1
    x292      C119      -1
    x293      __OBJ___  124
    x293      C22       -1
    x293      C265      -1
    x296      __OBJ___  110
    x296      C54       -1
    x305      __OBJ___  379
    x305      C104      -1
    x314      __OBJ___  217
    x314      C65       -1
    x314      C204      -1
    x314      C303      -1
    x314      C326      -1
    x316      __OBJ___  64
    x316      C80       -1
    x316      C165      -1
    x316      C311      -1
    x319      __OBJ___  201
    x319      C61       -1
    x319      C77       -1
    x319      C161      -1
    x319      C373      -1
    x319      C395      -1
    x325      __OBJ___  884
    x325      C57       -1
    x325      C347      -1
    x326      __OBJ___  309
    x326      C128      -1
    x326      C255      -1
    x328      __OBJ___  6
    x328      C93       -1
    x330      __OBJ___  739
    x330      C221      -1
    x330      C248      -1
    x330      C370      -1
    x335      __OBJ___  388
    x335      C37       -1
    x335      C218      -1
    x335      C283      -1
    x338      __OBJ___  970
    x338      C114      -1
    x338      C271      -1
    x338      C338      -1
    x340      __OBJ___  935
    x340      C93       -1
    x340      C307      -1
    x340      C347      -1
    x341      __OBJ___  419
    x341      C6        -1
    x341      C185      -1
    x341      C215      -1
    x346      __OBJ___  305
    x346      C14       -1
    x346      C199      -1
    x352      __OBJ___  410
    x352      C102      -1
    x352      C159      -1
    x353      __OBJ___  74
    x353      C165      -1
    x353      C214      -1
    x353      C290      -1
    x353      C296      -1
    x353      C332      -1
    x354      __OBJ___  312
    x354      C224      -1
    x354      C284      -1
    x354      C310      -1
    x361      __OBJ___  361
    x361      C343      -1
    x362      __OBJ___  131
    x362      C126      -1
    x362      C245      -1
    x362      C292      -1
    x362      C355      -1
    x367      __OBJ___  746
    x367      C242      -1
    x367      C272      -1
    x367      C283      -1
    x371      __OBJ___  296
    x371      C185      -1
    x372      __OBJ___  458
    x372      C267      -1
    x372      C330      -1
    x372      C334      -1
    x376      __OBJ___  595
    x376      C80       -1
    x376      C91       -1
    x376      C268      -1
    x383      __OBJ___  69
    x383      C229      -1
    x383      C269      -1
    x385      __OBJ___  274
    x385      C136      -1
    x385      C280      -1
    x385      C296      -1
    x385      C358      -1
    x385      C378      -1
    x388      __OBJ___  57
    x388      C71       -1
    x388      C201      -1
    x388      C218      -1
    x391      __OBJ___  579
    x391      C54       -1
    x391      C153      -1
    x391      C161      -1
    x398      __OBJ___  39
    x398      C75       -1
    x398      C304      -1
    MARKER    'MARKER'                 'INTEND'
RHS
    RHS       __OBJ___  -22644
    RHS       C6        -1
    RHS       C8        -1
    RHS       C11       -1
    RHS       C12       -1
    RHS       C14       -1
    RHS       C17       -1
    RHS       C20       -1
    RHS       C22       -1
    RHS       C26       -1
    RHS       C36       -1
    RHS       C37       -1
    RHS       C38       -1
    RHS       C46       -1
    RHS       C48       -1
    RHS       C49       -1
    RHS       C54       -1
    RHS       C55       -1
    RHS       C57       -1
    RHS       C61       -1
    RHS       C65       -1
    RHS       C67       -1
    RHS       C71       -1
    RHS       C75       -1
    RHS       C76       -1
    RHS       C77       -1
    RHS       C80       -1
    RHS       C85       -1
    RHS       C86       -1
    RHS       C90       -1
    RHS       C91       -1
    RHS       C93       -1
    RHS       C97       -1
    RHS       C102      -1
    RHS       C104      -1
    RHS       C108      -1
    RHS       C111      -1
    RHS       C114      -1
    RHS       C119      -1
    RHS       C121      -1
    RHS       C126      -1
    RHS       C128      -1
    RHS       C136      -1
    RHS       C137      -1
    RHS       C144      -1
    RHS       C148      -1
    RHS       C152      -1
    RHS       C153      -1
    RHS       C157      -1
    RHS       C159      -1
    RHS       C161      -1
    RHS       C163      -1
    RHS       C165      -1
    RHS       C168      -1
    RHS       C169      -1
    RHS       C173      -1
    RHS       C175      -1
    RHS       C178      -1
    RHS       C181      -1
    RHS       C185      -1
    RHS       C189      -1
    RHS       C191      -1
    RHS       C192      -1
    RHS       C199      -1
    RHS       C201      -1
    RHS       C204      -1
    RHS       C214      -1
    RHS       C215      -1
    RHS       C217      -1
    RHS       C218      -1
    RHS       C221      -1
    RHS       C223      -1
    RHS       C224      -1
    RHS       C228      -1
    RHS       C229      -1
    RHS       C230      -1
    RHS       C235      -1
    RHS       C242      -1
    RHS       C244      -1
    RHS       C245      -1
    RHS       C248      -1
    RHS       C254      -1
    RHS       C255      -1
    RHS       C265      -1
    RHS       C267      -1
    RHS       C268      -1
    RHS       C269      -1
    RHS       C271      -1
    RHS       C272      -1
    RHS       C275      -1
    RHS       C278      -1
    RHS       C280      -1
    RHS       C283      -1
    RHS       C284      -1
    RHS       C286      -1
    RHS       C288      -1
    RHS       C290      -1
    RHS       C292      -1
    RHS       C296      -1
    RHS       C297      -1
    RHS       C299      -1
    RHS       C300      -1
    RHS       C303      -1
    RHS       C304      -1
    RHS       C307      -1
    RHS       C310      -1
    RHS       C311      -1
    RHS       C312      -1
    RHS       C313      -1
    RHS       C316      -1
    RHS       C319      -1
    RHS       C320      -1
    RHS       C321      -1
    RHS       C326      -1
    RHS       C327      -1
    RHS       C330      -1
    RHS       C332      -1
    RHS       C334      -1
    RHS       C338      -1
    RHS       C343      -1
    RHS       C346      -1
    RHS       C347      -1
    RHS       C353      -1
    RHS       C355      -1
    RHS       C357      -1
    RHS       C358      -1
    RHS       C361      -1
    RHS       C364      -1
    RHS       C370      -1
    RHS       C373      -1
    RHS       C378      -1
    RHS       C380      -1
    RHS       C389      -1
    RHS       C395      -1
    RHS       C399      -1
BOUNDS
 UP BOUND     x2        1
 UP BOUND     x6        1
 UP BOUND     x9        1
 UP BOUND     x10       1
 UP BOUND     x14       1
 UP BOUND     x15       1
 UP BOUND     x17       1
 UP BOUND     x19       1
 UP BOUND     x21       1
 UP BOUND     x22       1
 UP BOUND     x33       1
 UP BOUND     x37       1
 UP BOUND     x39       1
 UP BOUND     x41       1
 UP BOUND     x44       1
 UP BOUND     x45       1
 UP BOUND     x50       1
 UP BOUND     x51       1
 UP BOUND     x55       1
 UP BOUND     x57       1
 UP BOUND     x58       1
 UP BOUND     x62       1
 UP BOUND     x68       1
 UP BOUND     x72       1
 UP BOUND     x73       1
 UP BOUND     x74       1
 UP BOUND     x77       1
 UP BOUND     x78       1
 UP BOUND     x80       1
 UP BOUND     x83       1
 UP BOUND     x84       1
 UP BOUND     x85       1
 UP BOUND     x89       1
 UP BOUND     x94       1
 UP BOUND     x95       1
 UP BOUND     x97       1
 UP BOUND     x98       1
 UP BOUND     x99       1
 UP BOUND     x104      1
 UP BOUND     x105      1
 UP BOUND     x108      1
 UP BOUND     x113      1
 UP BOUND     x117      1
 UP BOUND     x118      1
 UP BOUND     x121      1
 UP BOUND     x122      1
 UP BOUND     x123      1
 UP BOUND     x125      1
 UP BOUND     x131      1
 UP BOUND     x133      1
 UP BOUND     x136      1
 UP BOUND     x140      1
 UP BOUND     x143      1
 UP BOUND     x148      1
 UP BOUND     x149      1
 UP BOUND     x150      1
 UP BOUND     x151      1
 UP BOUND     x155      1
 UP BOUND     x157      1
 UP BOUND     x159      1
 UP BOUND     x160      1
 UP BOUND     x170      1
 UP BOUND     x173      1
 UP BOUND     x178      1
 UP BOUND     x180      1
 UP BOUND     x182      1
 UP BOUND     x183      1
 UP BOUND     x185      1
 UP BOUND     x188      1
 UP BOUND     x191      1
 UP BOUND     x197      1
 UP BOUND     x200      1
 UP BOUND     x203      1
 UP BOUND     x204      1
 UP BOUND     x208      1
 UP BOUND     x209      1
 UP BOUND     x216      1
 UP BOUND     x218      1
 UP BOUND     x220      1
 UP BOUND     x222      1
 UP BOUND     x223      1
 UP BOUND     x227      1
 UP BOUND     x230      1
 UP BOUND     x237      1
 UP BOUND     x240      1
 UP BOUND     x242      1
 UP BOUND     x243      1
 UP BOUND     x252      1
 UP BOUND     x256      1
 UP BOUND     x258      1
 UP BOUND     x260      1
 UP BOUND     x263      1
 UP BOUND     x270      1
 UP BOUND     x276      1
 UP BOUND     x282      1
 UP BOUND     x292      1
 UP BOUND     x293      1
 UP BOUND     x296      1
 UP BOUND     x305      1
 UP BOUND     x314      1
 UP BOUND     x316      1
 UP BOUND     x319      1
 UP BOUND     x325      1
 UP BOUND     x326      1
 UP BOUND     x328      1
 UP BOUND     x330      1
 UP BOUND     x335      1
 UP BOUND     x338      1
 UP BOUND     x340      1
 UP BOUND     x341      1
 UP BOUND     x346      1
 UP BOUND     x352      1
 UP BOUND     x353      1
 UP BOUND     x354      1
 UP BOUND     x361      1
 UP BOUND     x362      1
 UP BOUND     x367      1
 UP BOUND     x371      1
 UP BOUND     x372      1
 UP BOUND     x376      1
 UP BOUND     x383      1
 UP BOUND     x385      1
 UP BOUND     x388      1
 UP BOUND     x391      1
 UP BOUND     x398      1
ENDATA
